=obj=                54.6
z                    54.6
floab                0
floac                0
fload                54.6
floae                54.6
floaf                0
floag                0
floah                0
floba                0
flobc                54.6
flobd                0
flobe                0
flobf                0
flobg                0
flobh                54.6
floca                54.6
flocb                0
flocd                0
floce                0
flocf                54.6
flocg                0
floch                0
floda                0
flodb                0
flodc                0
flode                0
flodf                0
flodg                54.6
flodh                54.6
floea                0
floeb                54.6
floec                0
floed                0
floef                54.6
floeg                0
floeh                0
flofa                18.4
flofb                15.6
flofc                11
flofd                11.6
flofe                9
flofg                54.6
flofh                0
floga                6.59999999999999
flogb                17
flogc                53.0636363636364
flogd                40
floge                32.1363636363636
flogf                0
flogh                0
floha                19.6
flohb                7
flohc                2.53636363636364
flohd                13
flohe                4.46363636363636
flohf                0
flohg                54.6
xab                  0
xac                  0
xad                  1
xae                  1
xaf                  0
xag                  0
xah                  0
xba                  0
xbc                  1
xbd                  0
xbe                  0
xbf                  0
xbg                  0
xbh                  1
xca                  1
xcb                  0
xcd                  0
xce                  0
xcf                  1
xcg                  0
xch                  0
xda                  0
xdb                  0
xdc                  0
xde                  0
xdf                  0
xdg                  1
xdh                  1
xea                  0
xeb                  1
xec                  0
xed                  0
xef                  1
xeg                  0
xeh                  0
xfa                  0.649841470005405
xfb                  0.168571428571429
xfc                  0.55457411441018
xfd                  0.125714285714285
xfe                  0.128571428571429
xfg                  0.372727272727273
xfh                  0
xga                  0.133765087371644
xgb                  0.329878213771656
xgc                  0.403846153846154
xgd                  0.323076923076923
xge                  0.809433621933622
xgf                  0
xgh                  0
xha                  0.216393442622951
xhb                  0.501550357656915
xhc                  0.0415797317436662
xhd                  0.551208791208792
xhe                  0.0619949494949495
xhf                  0
xhg                  0.627272727272727
faab                 0
faac                 0
faad                 33
faae                 41
faaf                 0
faag                 0
faah                 0
fabc                 5.99999999999999
fabd                 0
fabe                 0
fabf                 0
fabg                 0
fabh                 0
facb                 0
facd                 0
face                 0
facf                 0
facg                 0
fach                 0
fadb                 0
fadc                 0
fade                 0
fadf                 0
fadg                 7.00000000000001
fadh                 13
faeb                 16
faec                 0
faed                 0
faef                 13
faeg                 0
faeh                 0
fafb                 0
fafc                 0
fafd                 0
fafe                 0
fafg                 0
fafh                 0
fagb                 0
fagc                 1.00000000000001
fagd                 0
fage                 0
fagf                 0
fagh                 0
fahb                 0
fahc                 0
fahd                 0
fahe                 0
fahf                 0
fahg                 0
fbac                 0
fbad                 0
fbae                 0.199999999999999
fbaf                 0
fbag                 0
fbah                 0
fbba                 0
fbbc                 38.2
fbbd                 0
fbbe                 0
fbbf                 0
fbbg                 0
fbbh                 42.8
fbca                 14.2
fbcd                 0
fbce                 0
fbcf                 9
fbcg                 0
fbch                 0
fbda                 0
fbdc                 0
fbde                 0
fbdf                 0
fbdg                 0
fbdh                 0
fbea                 0
fbec                 0
fbed                 0
fbef                 0
fbeg                 0
fbeh                 0
fbfa                 0
fbfc                 0
fbfd                 0
fbfe                 0
fbfg                 0
fbfh                 0
fbga                 0
fbgc                 0
fbgd                 0
fbge                 7.33636363636364
fbgf                 0
fbgh                 0
fbha                 0
fbhc                 0
fbhd                 13
fbhe                 4.46363636363636
fbhf                 0
fbhg                 16.3363636363636
fcab                 0
fcad                 16.2
fcae                 11.2
fcaf                 0
fcag                 0
fcah                 0
fcba                 0
fcbd                 0
fcbe                 0
fcbf                 0
fcbg                 0
fcbh                 0
fcca                 40.4
fccb                 0
fccd                 0
fcce                 0
fccf                 22.6
fccg                 0
fcch                 0
fcda                 0
fcdb                 0
fcde                 0
fcdf                 0
fcdg                 0
fcdh                 8
fcea                 0
fceb                 5.20000000000002
fced                 0
fcef                 0
fceg                 0
fceh                 0
fcfa                 0
fcfb                 3.79999999999998
fcfd                 2.80000000000002
fcfe                 0
fcfg                 11
fcfh                 0
fcga                 0
fcgb                 0
fcgd                 0
fcge                 0
fcgf                 0
fcgh                 0
fcha                 0
fchb                 0
fchd                 0
fche                 0
fchf                 0
fchg                 0
fdab                 0
fdac                 0
fdae                 0
fdaf                 0
fdag                 0
fdah                 0
fdba                 0
fdbc                 0
fdbe                 0
fdbf                 0
fdbg                 0
fdbh                 0
fdca                 0
fdcb                 0
fdce                 0
fdcf                 6
fdcg                 0
fdch                 0
fdda                 0
fddb                 0
fddc                 0
fdde                 0
fddf                 0
fddg                 47.6
fddh                 15.4
fdea                 0
fdeb                 0
fdec                 0
fdef                 0
fdeg                 0
fdeh                 0
fdfa                 0
fdfb                 0
fdfc                 0
fdfe                 0
fdfg                 0
fdfh                 0
fdga                 0.599999999999987
fdgb                 8
fdgc                 21
fdge                 7
fdgf                 0
fdgh                 0
fdha                 6.40000000000001
fdhb                 0
fdhc                 0
fdhe                 0
fdhf                 0
fdhg                 0
feab                 0
feac                 0
fead                 0
feaf                 0
feag                 0
feah                 0
feba                 0
febc                 10.4
febd                 0
febf                 0
febg                 0
febh                 11
feca                 0
fecb                 0
fecd                 0
fecf                 0
fecg                 0
fech                 0
feda                 0
fedb                 0
fedc                 0
fedf                 0
fedg                 0
fedh                 0
feea                 0
feeb                 33.4
feec                 0
feed                 0
feef                 41.6
feeg                 0
feeh                 0
fefa                 8
fefb                 0
fefc                 0
fefd                 0
fefg                 24.6
fefh                 0
fega                 0
fegb                 0
fegc                 1.6
fegd                 9
fegf                 0
fegh                 0
feha                 0
fehb                 0
fehc                 0
fehd                 0
fehf                 0
fehg                 0
ffab                 0
ffac                 0
ffad                 5.40000000000001
ffae                 0
ffag                 0
ffah                 0
ffba                 0
ffbc                 0
ffbd                 0
ffbe                 0
ffbg                 0
ffbh                 0.800000000000011
ffca                 0
ffcb                 0
ffcd                 0
ffce                 0
ffcg                 0
ffch                 0
ffda                 0
ffdb                 0
ffdc                 0
ffde                 0
ffdg                 0
ffdh                 11.2
ffea                 0
ffeb                 0
ffec                 0
ffed                 0
ffeg                 0
ffeh                 0
fffa                 10.4
fffb                 11.8
fffc                 11
fffd                 8.799999999999979
fffe                 9
fffg                 19
fffh                 0
ffga                 0
ffgb                 0
ffgc                 0
ffgd                 4
ffge                 0
ffgh                 0
ffha                 0
ffhb                 0
ffhc                 0
ffhd                 0
ffhe                 0
ffhg                 0
fgab                 0
fgac                 0
fgad                 0
fgae                 0
fgaf                 0
fgah                 0
fgba                 0
fgbc                 0
fgbd                 0
fgbe                 0
fgbf                 0
fgbh                 0
fgca                 0
fgcb                 0
fgcd                 0
fgce                 0
fgcf                 12
fgch                 0
fgda                 0
fgdb                 0
fgdc                 0
fgde                 0
fgdf                 0
fgdh                 7
fgea                 0
fgeb                 0
fgec                 0
fged                 0
fgef                 0
fgeh                 0
fgfa                 0
fgfb                 0
fgfc                 0
fgfd                 0
fgfe                 0
fgfh                 0
fgga                 6
fggb                 9
fggc                 19
fggd                 21
fgge                 10
fggf                 0
fggh                 0
fgha                 0
fghb                 0
fghc                 0
fghd                 0
fghe                 0
fghf                 0
fhab                 0
fhac                 0
fhad                 0
fhae                 2.2
fhaf                 0
fhag                 0
fhba                 0
fhbc                 0
fhbd                 0
fhbe                 0
fhbf                 0
fhbg                 0
fhca                 0
fhcb                 0
fhcd                 0
fhce                 0
fhcf                 5
fhcg                 0
fhda                 0
fhdb                 0
fhdc                 0
fhde                 0
fhdf                 0
fhdg                 0
fhea                 0
fheb                 0
fhec                 0
fhed                 0
fhef                 0
fheg                 0
fhfa                 0
fhfb                 0
fhfc                 0
fhfd                 0
fhfe                 0
fhfg                 0
fhga                 0
fhgb                 0
fhgc                 10.4636363636364
fhgd                 6
fhge                 7.8
fhgf                 0
fhha                 13.2
fhhb                 7
fhhc                 2.53636363636364
fhhd                 0
fhhe                 0
fhhf                 0
fhhg                 38.2636363636364
